qbf_easy_train/easy_5797_SAT.qdimacs
p cnf 26 69
a 9 3 17 0
e 1 2 4 5 6 7 8 10 11 12 13 14 15 16 18 19 20 21 22 23 24 25 26 0
4 2 0
4 -3 0
-2 3 -4 0
-4 -2 -5 0
4 2 -5 0
-4 2 5 0
4 -2 5 0
-6 -1 0
-6 5 0
1 -5 6 0
7 -5 0
7 -1 0
5 1 -7 0
8 6 0
8 -7 0
-6 7 -8 0
3 -10 -11 0
-3 10 -11 0
3 10 11 0
-3 -10 11 0
-9 -11 -12 0
9 11 -12 0
-9 11 12 0
9 -11 12 0
-1 12 -13 0
1 -12 -13 0
-1 -12 13 0
1 12 13 0
-15 -5 0
-15 14 0
5 -14 15 0
16 14 0
16 -12 0
-14 12 -16 0
-14 16 -17 0
14 -16 -17 0
-14 -16 17 0
14 16 17 0
18 -15 0
18 17 0
15 -17 -18 0
-19 13 0
-19 -18 0
-13 18 19 0
20 8 0
20 -19 0
-8 19 -20 0
-12 -21 -22 0
12 21 -22 0
-12 21 22 0
12 -21 22 0
-14 -23 -24 0
14 23 -24 0
-14 23 24 0
14 -23 24 0
22 -24 -25 0
-22 24 -25 0
22 24 25 0
-22 -24 25 0
-26 -20 0
-26 25 0
20 -25 26 0
-15 24 0
5 -12 -6 2 -16 0
24 -16 14 0
-10 -12 1 -5 -3 0
-17 25 -1 0
26 2 -23 -4 8 0
26 0
