sat_easy_train/easy_5797_SAT.dimacs
p cnf 106 354
-1 -2 -3 0
1 2 -3 0
-1 2 3 0
1 -2 3 0
-6 -4 0
-6 5 0
4 -5 6 0
3 6 -7 0
-3 -6 -7 0
3 -6 7 0
-3 6 7 0
-10 -8 0
-10 9 0
8 -9 10 0
-2 -11 -12 0
2 11 -12 0
-2 11 12 0
2 -11 12 0
-10 12 -13 0
10 -12 -13 0
-10 -12 13 0
10 12 13 0
15 -13 0
15 -14 0
13 14 -15 0
-16 -7 0
-16 15 0
7 -15 16 0
18 17 0
18 3 0
-17 -3 -18 0
18 19 -20 0
-18 -19 -20 0
18 -19 20 0
-18 19 20 0
21 -20 0
21 3 0
20 -3 -21 0
22 5 -23 0
-22 -5 -23 0
22 -5 23 0
-22 5 23 0
25 5 0
25 -8 0
-5 8 -25 0
26 25 0
26 3 0
-25 -3 -26 0
27 -3 0
27 2 0
3 -2 -27 0
-28 27 0
-28 8 0
-27 -8 28 0
29 -26 0
29 28 0
26 -28 -29 0
-24 -29 -30 0
24 29 -30 0
-24 29 30 0
24 -29 30 0
23 -30 -31 0
-23 30 -31 0
23 30 31 0
-23 -30 31 0
31 -32 -33 0
-31 32 -33 0
31 32 33 0
-31 -32 33 0
-34 -21 0
-34 33 0
21 -33 34 0
-22 -35 -36 0
22 35 -36 0
-22 35 36 0
22 -35 36 0
37 -36 0
37 -25 0
36 25 -37 0
37 25 -38 0
-37 -25 -38 0
37 -25 38 0
-37 25 38 0
34 -38 -39 0
-34 38 -39 0
34 38 39 0
-34 -38 39 0
40 24 0
40 27 0
-24 -27 -40 0
42 -24 0
42 -41 0
24 41 -42 0
-11 42 -43 0
11 -42 -43 0
-11 -42 43 0
11 42 43 0
-44 40 0
-44 43 0
-40 -43 44 0
45 -39 0
45 44 0
39 -44 -45 0
16 45 -46 0
-16 -45 -46 0
16 -45 46 0
-16 45 46 0
-47 -23 0
-47 24 0
23 -24 47 0
-19 12 -48 0
19 -12 -48 0
-19 -12 48 0
19 12 48 0
-49 47 0
-49 -48 0
-47 48 49 0
22 36 -50 0
-22 -36 -50 0
22 -36 50 0
-22 36 50 0
-50 4 -51 0
50 -4 -51 0
-50 -4 51 0
50 4 51 0
-22 28 -52 0
22 -28 -52 0
-22 -28 52 0
22 28 52 0
53 52 0
53 -11 0
-52 11 -53 0
-54 51 0
-54 -53 0
-51 53 54 0
-55 49 0
-55 54 0
-49 -54 55 0
56 46 0
56 -55 0
-46 55 -56 0
4 5 -57 0
-4 -5 -57 0
4 -5 57 0
-4 5 57 0
-57 35 -58 0
57 -35 -58 0
-57 -35 58 0
57 35 58 0
-59 24 0
-59 -36 0
-24 36 59 0
-60 25 0
-60 59 0
-25 -59 60 0
-60 2 -61 0
60 -2 -61 0
-60 -2 61 0
60 2 61 0
62 -26 0
62 17 0
26 -17 -62 0
4 62 -63 0
-4 -62 -63 0
4 -62 63 0
-4 62 63 0
17 -3 -64 0
-17 3 -64 0
17 3 64 0
-17 -3 64 0
-65 -64 0
-65 50 0
64 -50 65 0
63 -65 -66 0
-63 65 -66 0
63 65 66 0
-63 -65 66 0
67 -2 0
67 10 0
2 -10 -67 0
-35 -43 -68 0
35 43 -68 0
-35 43 68 0
35 -43 68 0
69 -67 0
69 68 0
67 -68 -69 0
-70 66 0
-70 69 0
-66 -69 70 0
-61 -70 -71 0
61 70 -71 0
-61 70 71 0
61 -70 71 0
-72 42 0
-72 20 0
-42 -20 72 0
-73 37 0
-73 -72 0
-37 72 73 0
12 9 -74 0
-12 -9 -74 0
12 -9 74 0
-12 9 74 0
-75 63 0
-75 -3 0
-63 3 75 0
76 8 0
76 75 0
-8 -75 -76 0
77 74 0
77 -76 0
-74 76 -77 0
-78 -36 0
-78 77 0
36 -77 78 0
79 -73 0
79 78 0
73 -78 -79 0
80 -71 0
80 79 0
71 -79 -80 0
81 5 0
81 62 0
-5 -62 -81 0
-82 50 0
-82 81 0
-50 -81 82 0
80 82 -83 0
-80 -82 -83 0
80 -82 83 0
-80 82 83 0
-84 58 0
-84 -83 0
-58 83 84 0
86 -36 0
86 -85 0
36 85 -86 0
-87 -86 0
-87 31 0
86 -31 87 0
-57 41 -88 0
57 -41 -88 0
-57 -41 88 0
57 41 88 0
89 11 0
89 88 0
-11 -88 -89 0
-90 12 0
-90 75 0
-12 -75 90 0
-89 90 -91 0
89 -90 -91 0
-89 -90 91 0
89 90 91 0
-92 87 0
-92 -91 0
-87 91 92 0
-93 -2 0
-93 10 0
2 -10 93 0
-94 -9 0
-94 86 0
9 -86 94 0
95 93 0
95 -94 0
-93 94 -95 0
-96 92 0
-96 -95 0
-92 95 96 0
-97 -84 0
-97 96 0
84 -96 97 0
98 56 0
98 -97 0
-56 97 -98 0
-86 88 -99 0
86 -88 -99 0
-86 -88 99 0
86 88 99 0
59 68 -100 0
-59 -68 -100 0
59 -68 100 0
-59 68 100 0
-9 20 -101 0
9 -20 -101 0
-9 -20 101 0
9 20 101 0
100 -101 -102 0
-100 101 -102 0
100 101 102 0
-100 -101 102 0
-14 -64 -103 0
14 64 -103 0
-14 64 103 0
14 -64 103 0
102 103 -104 0
-102 -103 -104 0
102 -103 104 0
-102 103 104 0
99 -104 -105 0
-99 104 -105 0
99 104 105 0
-99 -104 105 0
106 -98 0
106 -105 0
98 105 -106 0
-82 -104 21 0
86 -50 -82 0
40 -35 -101 0
34 -23 -48 25 -8 0
-13 36 45 27 -70 0
-79 -52 104 -91 49 -29 0
24 -80 29 0
-54 -30 92 -45 84 0
33 -16 -72 99 0
57 80 -48 -31 -56 0
-64 -89 8 0
83 63 27 0
15 90 -99 -88 62 0
-65 57 -92 -99 -51 0
58 68 16 17 -6 35 0
-3 70 99 -52 0
38 102 -39 -15 83 0
-95 -4 18 54 0
103 27 66 -56 52 -9 0
-61 -31 -47 8 -13 19 0
-29 -24 -61 99 0
67 -47 0
-91 104 -30 0
42 60 0
-30 -12 66 -59 0
-49 16 -86 -92 17 -64 0
-46 28 102 0
-6 -12 0
88 -26 -89 -104 -45 0
-93 -100 0
-71 6 43 -21 33 0
27 72 36 -73 0
36 85 -90 0
-35 -46 93 7 68 29 0
-72 7 -80 65 19 0
96 81 -61 0
82 42 -87 -32 -30 67 0
-17 53 -66 0
45 10 85 63 29 0
-45 -38 -95 0
-24 -33 -34 -63 12 0
-63 99 -15 0
63 -9 -98 -28 100 0
47 -29 31 74 0
-78 87 -47 -98 0
105 -30 -78 0
106 0
